xi Comparison - xi=0.5

Parameters:
W = 60
K = 5
Duplications = {8.0: 5, 9.0: 5, 10.0: 10, 11.0: 5, 12.0: 10,
                13.0: 10, 14.0: 10, 15.0: 5, 16.0: 5, 17.0: 10,
                18.0: 10, 19.0: 10, 20.0: 10, 21.0: 10}
s = 5
r = 10
Starting Positions = 17.0, 18.0, 19.0, 20.0, 21.0

Gurobi Log Excerpt:
Academic license - for non-commercial use only - expires 2021-07-06
Using license file /Users/ellajohnsen/gurobi.lic
Changed value of parameter TimeLimit to 3600.0
   Prev: inf  Min: 0.0  Max: inf  Default: inf
Gurobi Optimizer version 9.1.1 build v9.1.1rc0 (mac64)
Thread count: 8 physical cores, 8 logical processors, using up to 8 threads
Optimize a model with 4993 rows, 4433 columns and 45765 nonzeros
Model fingerprint: 0x21fe3ff3
Variable types: 117 continuous, 4316 integer (4316 binary)
Coefficient statistics:
  Matrix range     [1e+00, 1e+02]
  Objective range  [3e+02, 3e+07]
  Bounds range     [1e+00, 6e+01]
  RHS range        [1e+00, 6e+01]
Presolve removed 3537 rows and 3174 columns
Presolve time: 0.19s
Presolved: 1456 rows, 1259 columns, 16651 nonzeros
Variable types: 79 continuous, 1180 integer (1174 binary)
Found heuristic solution: objective 1.190305e+09

Root relaxation: objective 7.411727e+08, 1038 iterations, 0.02 seconds

    Nodes    |    Current Node    |     Objective Bounds      |     Work
 Expl Unexpl |  Obj  Depth IntInf | Incumbent    BestBd   Gap | It/Node Time

     0     0 7.4117e+08    0  110 1.1903e+09 7.4117e+08  37.7%     -    0s
H    0     0                    1.163854e+09 7.4117e+08  36.3%     -    0s
H    0     0                    1.163854e+09 7.4117e+08  36.3%     -    0s
H    0     0                    1.137404e+09 7.4117e+08  34.8%     -    0s
     0     0 7.4293e+08    0  123 1.1374e+09 7.4293e+08  34.7%     -    0s
     0     0 8.2001e+08    0  100 1.1374e+09 8.2001e+08  27.9%     -    0s
H    0     0                    1.137403e+09 8.2001e+08  27.9%     -    0s
H    0     0                    1.110958e+09 8.2001e+08  26.2%     -    0s
     0     0 8.2001e+08    0   96 1.1110e+09 8.2001e+08  26.2%     -    0s
     0     0 8.2001e+08    0   97 1.1110e+09 8.2001e+08  26.2%     -    0s
     0     0 8.3144e+08    0  117 1.1110e+09 8.3144e+08  25.2%     -    0s
     0     0 8.3144e+08    0  108 1.1110e+09 8.3144e+08  25.2%     -    0s
H    0     0                    1.084510e+09 8.3144e+08  23.3%     -    0s
     0     0 8.3323e+08    0  112 1.0845e+09 8.3323e+08  23.2%     -    0s
     0     0 8.3323e+08    0   95 1.0845e+09 8.3323e+08  23.2%     -    0s
     0     0 8.4348e+08    0   80 1.0845e+09 8.4348e+08  22.2%     -    0s
     0     0 8.4348e+08    0  103 1.0845e+09 8.4348e+08  22.2%     -    0s
     0     0 8.6176e+08    0  101 1.0845e+09 8.6176e+08  20.5%     -    0s
     0     0 8.6176e+08    0   91 1.0845e+09 8.6176e+08  20.5%     -    1s
     0     0 8.7291e+08    0   95 1.0845e+09 8.7291e+08  19.5%     -    1s
     0     0 8.7291e+08    0   82 1.0845e+09 8.7291e+08  19.5%     -    1s
     0     0 8.7291e+08    0   80 1.0845e+09 8.7291e+08  19.5%     -    1s
     0     0 8.7291e+08    0   76 1.0845e+09 8.7291e+08  19.5%     -    1s
     0     0 8.7291e+08    0   65 1.0845e+09 8.7291e+08  19.5%     -    1s
H    0     0                    1.058059e+09 8.7291e+08  17.5%     -    1s
     0     0 8.7291e+08    0   67 1.0581e+09 8.7291e+08  17.5%     -    1s
     0     0 8.7291e+08    0   68 1.0581e+09 8.7291e+08  17.5%     -    1s
     0     0 8.7291e+08    0   83 1.0581e+09 8.7291e+08  17.5%     -    1s
H    0     0                    1.058057e+09 8.7291e+08  17.5%     -    1s
     0     0 8.7291e+08    0   76 1.0581e+09 8.7291e+08  17.5%     -    1s
     0     0 8.7291e+08    0   75 1.0581e+09 8.7291e+08  17.5%     -    1s
     0     0 8.7291e+08    0   66 1.0581e+09 8.7291e+08  17.5%     -    1s
     0     2 8.7291e+08    0   66 1.0581e+09 8.7291e+08  17.5%     -    1s
H   75    46                    1.031607e+09 8.7291e+08  15.4%  49.4    1s
H  129    78                    1.005162e+09 8.7291e+08  13.2%  42.7    1s
H  132    78                    1.005156e+09 8.7291e+08  13.2%  43.0    1s
H 1783   900                    9.787066e+08 8.7292e+08  10.8%  29.8    3s
H 1784   855                    9.522633e+08 8.7292e+08  8.33%  29.8    3s
H 1789   812                    9.522560e+08 8.7292e+08  8.33%  29.9    3s
H 1879   754                    9.522560e+08 8.7292e+08  8.33%  33.0    3s
H 1881   715                    9.258127e+08 8.7292e+08  5.71%  33.0    3s

Cutting planes:
  Gomory: 18
  Cover: 11
  Clique: 9
  MIR: 18
  StrongCG: 5
  Flow cover: 25
  GUB cover: 27
  Zero half: 3
  RLT: 5

Explored 4054 nodes (191415 simplex iterations) in 4.97 seconds
Thread count was 8 (of 8 available processors)

Solution count 10: 9.25813e+08 9.52256e+08 9.52263e+08 ... 1.08451e+09

Optimal solution found (tolerance 1.00e-04)
Best objective 9.258126640421e+08, best bound 9.258077349419e+08, gap 0.0005%
